RT is False
Default write of storage_offers_DA.csv just to have a file (but constraint should be inactive)
Reading model...
...model read.
creating competitive generators file...
...competitive generators recorded.
Loading data...
.. day-ahead data with real-time VRE data read.
Compiling instance...
...instance created.
Creating Offer Mitigation (model will solve as dispatch if TRUE)...
...storage offer mitigation file created
Converting model to MPEC...
...converted
NOTE: initial MIP solve with only storage competitive to get feasible solution
Solving...

Welcome to IBM(R) ILOG(R) CPLEX(R) Interactive Optimizer 12.10.0.0
  with Simplex, Mixed Integer & Barrier Optimizers
5725-A06 5725-A29 5724-Y48 5724-Y49 5724-Y54 5724-Y55 5655-Y21
Copyright IBM Corp. 1988, 2019.  All Rights Reserved.

Type 'help' for a list of available commands.
Type 'help' followed by a command name for more
information on commands.

CPLEX> Logfile 'cplex.log' closed.
Logfile 'C:\Users\wenmi\Desktop\competitiveMPEC\logs\tmp8c4_1pd3.cplex.log' open.
CPLEX> New value for parallel optimization mode: -1
CPLEX> New value for mixed integer optimality gap tolerance: 0.01
CPLEX> New value for integrality tolerance: 1e-09
CPLEX> New value for feasibility tolerance: 0.01
CPLEX> New value for deterministic time limit in ticks: 75000
CPLEX> Problem 'C:\Users\wenmi\Desktop\competitiveMPEC\logs\tmpa_1t39ik.pyomo.lp' read.
Read time = 0.16 sec. (14.71 ticks)
CPLEX> Problem name         : C:\Users\wenmi\Desktop\competitiveMPEC\logs\tmpa_1t39ik.pyomo.lp
Objective sense      : Maximize
Variables            :   53805  [Nneg: 1,  Box: 22000,  Free: 4464,
                                 Binary: 27340]
Objective nonzeros   :    9029
Linear constraints   :  123205  [Less: 41250,  Greater: 59096,  Equal: 22859]
  Nonzeros           :  291753
  RHS nonzeros       :   67395

Variables            : Min LB: -5000.000        Max UB: 1000000.       
Objective nonzeros   : Min   : 0.07500000       Max   : 2500.000       
Linear constraints   :
  Nonzeros           : Min   : 0.07500000       Max   : 1000000.       
  RHS nonzeros       : Min   : 0.07500000       Max   : 1000000.       
CPLEX> Version identifier: 12.10.0.0 | 2019-11-26 | 843d4de2ae
CPXPARAM_Parallel                                -1
CPXPARAM_Simplex_Tolerances_Feasibility          0.01
CPXPARAM_DetTimeLimit                            75000
CPXPARAM_MIP_Tolerances_MIPGap                   0.01
CPXPARAM_MIP_Tolerances_Integrality              1.0000000000000001e-09
Tried aggregator 3 times.
MIP Presolve eliminated 88726 rows and 19074 columns.
MIP Presolve added 3347 rows and 0 columns.
MIP Presolve modified 24874 coefficients.
Aggregator did 12948 substitutions.
Reduced MIP has 24878 rows, 21227 columns, and 70940 nonzeros.
Reduced MIP has 8399 binaries, 0 generals, 0 SOSs, and 0 indicators.
Presolve time = 0.19 sec. (171.03 ticks)
Probing fixed 370 vars, tightened 2850 bounds.
Probing time = 0.86 sec. (874.17 ticks)
Tried aggregator 2 times.
Detecting symmetries...
MIP Presolve eliminated 834 rows and 742 columns.
MIP Presolve modified 2234 coefficients.
Aggregator did 44 substitutions.
Reduced MIP has 24000 rows, 20441 columns, and 68398 nonzeros.
Reduced MIP has 8028 binaries, 0 generals, 0 SOSs, and 0 indicators.
Presolve time = 0.06 sec. (68.50 ticks)
Probing time = 0.03 sec. (15.78 ticks)
Clique table members: 6356.
MIP emphasis: balance optimality and feasibility.
MIP search method: dynamic search.
Parallel mode: opportunistic, using up to 16 threads.
Root relaxation solution time = 0.28 sec. (239.89 ticks)

        Nodes                                         Cuts/
   Node  Left     Objective  IInf  Best Integer    Best Bound    ItCnt     Gap

      0     0     3980.7076   764                   3980.7076     3610         
*     0     0      integral     0     3980.7076     3980.7076     3610    0.00%
Elapsed time = 3.25 sec. (2723.93 ticks, tree = 0.01 MB, solutions = 1)

Root node processing (before b&c):
  Real time             =    3.25 sec. (2725.88 ticks)
Parallel b&c, 16 threads:
  Real time             =    0.00 sec. (0.00 ticks)
  Sync time (average)   =    0.00 sec.
  Wait time (average)   =    0.00 sec.
                          ------------
Total (root+branch&cut) =    3.25 sec. (2725.88 ticks)

Solution pool: 1 solution saved.

MIP - Integer optimal solution:  Objective =  3.9807076410e+03
Solution time =    3.27 sec.  Iterations = 3610  Nodes = 0
Deterministic time = 2726.03 ticks  (834.67 ticks/sec)

CPLEX> Incumbent solution written to file 'C:\Users\wenmi\Desktop\competitiveMPEC\logs\tmp_k82in0f.cplex.sol'.
CPLEX> NOTE: no warmstart specified for MIP iteration, default behavior is true
NOTE: resolving with all competitive generators using storage-only solution to warmstart
Solving...

Welcome to IBM(R) ILOG(R) CPLEX(R) Interactive Optimizer 12.10.0.0
  with Simplex, Mixed Integer & Barrier Optimizers
5725-A06 5725-A29 5724-Y48 5724-Y49 5724-Y54 5724-Y55 5655-Y21
Copyright IBM Corp. 1988, 2019.  All Rights Reserved.

Type 'help' for a list of available commands.
Type 'help' followed by a command name for more
information on commands.

CPLEX> Logfile 'cplex.log' closed.
Logfile 'C:\Users\wenmi\Desktop\competitiveMPEC\logs\tmp553yj3sf.cplex.log' open.
CPLEX> New value for parallel optimization mode: -1
CPLEX> New value for mixed integer optimality gap tolerance: 0.01
CPLEX> New value for integrality tolerance: 1e-09
CPLEX> New value for feasibility tolerance: 0.01
CPLEX> New value for deterministic time limit in ticks: 75000
CPLEX> Problem 'C:\Users\wenmi\Desktop\competitiveMPEC\logs\tmpure7r4wt.pyomo.lp' read.
Read time = 0.17 sec. (14.74 ticks)
CPLEX> MIP start file 'C:\Users\wenmi\Desktop\competitiveMPEC\logs\tmpy3iztq8h.cplex.mst' read.
CPLEX> Problem name         : C:\Users\wenmi\Desktop\competitiveMPEC\logs\tmpure7r4wt.pyomo.lp
Objective sense      : Maximize
Variables            :   54525  [Nneg: 1,  Box: 22720,  Free: 4464,
                                 Binary: 27340]
Objective nonzeros   :    9725
Linear constraints   :  123205  [Less: 41250,  Greater: 59096,  Equal: 22859]
  Nonzeros           :  291753
  RHS nonzeros       :   67395

Variables            : Min LB: -5000.000        Max UB: 1000000.       
Objective nonzeros   : Min   : 0.07500000       Max   : 2500.000       
Linear constraints   :
  Nonzeros           : Min   : 0.07500000       Max   : 1000000.       
  RHS nonzeros       : Min   : 0.07500000       Max   : 1000000.       
CPLEX> Version identifier: 12.10.0.0 | 2019-11-26 | 843d4de2ae
CPXPARAM_Parallel                                -1
CPXPARAM_Simplex_Tolerances_Feasibility          0.01
CPXPARAM_DetTimeLimit                            75000
CPXPARAM_MIP_Tolerances_MIPGap                   0.01
CPXPARAM_MIP_Tolerances_Integrality              1.0000000000000001e-09
Warning:  No solution found from 1 MIP starts.
Retaining values of one MIP start for possible repair.
Tried aggregator 3 times.
MIP Presolve eliminated 88726 rows and 19794 columns.
MIP Presolve added 3347 rows and 0 columns.
MIP Presolve modified 24874 coefficients.
Aggregator did 12948 substitutions.
Reduced MIP has 24878 rows, 21227 columns, and 70940 nonzeros.
Reduced MIP has 8399 binaries, 0 generals, 0 SOSs, and 0 indicators.
Presolve time = 0.19 sec. (171.38 ticks)
Probing fixed 370 vars, tightened 2850 bounds.
Probing time = 0.84 sec. (874.17 ticks)
Tried aggregator 2 times.
Detecting symmetries...
MIP Presolve eliminated 834 rows and 742 columns.
MIP Presolve modified 2234 coefficients.
Aggregator did 44 substitutions.
Reduced MIP has 24000 rows, 20441 columns, and 68398 nonzeros.
Reduced MIP has 8028 binaries, 0 generals, 0 SOSs, and 0 indicators.
Presolve time = 0.06 sec. (68.50 ticks)
Probing time = 0.03 sec. (15.78 ticks)
Clique table members: 6356.
MIP emphasis: balance optimality and feasibility.
MIP search method: dynamic search.
Parallel mode: opportunistic, using up to 16 threads.
Root relaxation solution time = 0.28 sec. (244.83 ticks)

        Nodes                                         Cuts/
   Node  Left     Objective  IInf  Best Integer    Best Bound    ItCnt     Gap

      0     0    99368.1649   836                  99368.1649     3650         
      0     0    97756.5367   706                   Cuts: 583     3935         
      0     0    97755.9651   584                   Cuts: 399     4094         
      0     0    97755.3970   531                   Cuts: 198     4172         
      0     0    97755.3970   511                    Cuts: 59     4198         
      0     0    97755.3970   491                    Cuts: 45     4220         
      0     0    97755.3970   486                    Cuts: 41     4230         
      0     0    97755.3970   479                    Cuts: 19     4235         
      0     0    97755.3970   475                    Cuts: 11     4241         
Repair heuristic found nothing.
      0     2    97755.3970   475                  97735.3034     4241         
Elapsed time = 10.23 sec. (5984.36 ticks, tree = 0.02 MB, solutions = 0)
    131    36    86727.4220   448                  97437.0711     4390         
    482   131    81562.9362   436                  97421.4340     4889         
    879   288    85040.6761   399                  97421.4340     6958         
   1297   340    81525.9543   403                  97421.4340     7195         
   1688   573    72491.1123   356                  97421.4340    10381         
   2052   716    65065.2400   311                  97421.4340    10993         
   2516   963    67612.3772   303                  97421.4340    12183         
*  2843+ 1428                        72804.1542    97420.8058            33.81%
   3302  1381    97401.7538   454    72804.1542    97420.8058    16376   33.81%
   5104  2964    66109.2087   218    72804.1542    97420.8058    15513   33.81%
Elapsed time = 23.08 sec. (9029.45 ticks, tree = 26.04 MB, solutions = 3)
*  5550  1400      integral     0    73715.2161    97420.8058    16488   32.16%

Performing restart 1

Repeating presolve.
Tried aggregator 3 times.
MIP Presolve eliminated 803 rows and 704 columns.
MIP Presolve modified 7147 coefficients.
Aggregator did 168 substitutions.
Reduced MIP has 23029 rows, 19569 columns, and 62942 nonzeros.
Reduced MIP has 7676 binaries, 0 generals, 0 SOSs, and 0 indicators.
Presolve time = 0.06 sec. (62.15 ticks)
Tried aggregator 2 times.
MIP Presolve eliminated 367 rows and 300 columns.
MIP Presolve modified 295 coefficients.
Aggregator did 10 substitutions.
Reduced MIP has 22652 rows, 19259 columns, and 61864 nonzeros.
Reduced MIP has 7526 binaries, 0 generals, 0 SOSs, and 0 indicators.
Presolve time = 0.05 sec. (42.49 ticks)
Tried aggregator 2 times.
MIP Presolve eliminated 52 rows and 52 columns.
MIP Presolve modified 227 coefficients.
Aggregator did 17 substitutions.
Reduced MIP has 22583 rows, 19190 columns, and 61665 nonzeros.
Reduced MIP has 7500 binaries, 0 generals, 0 SOSs, and 0 indicators.
Presolve time = 0.08 sec. (66.21 ticks)
Represolve time = 1.75 sec. (1236.97 ticks)

Clique cuts applied:  12
Implied bound cuts applied:  33
Flow cuts applied:  447
Mixed integer rounding cuts applied:  25
Gomory fractional cuts applied:  31

Root node processing (before b&c):
  Real time             =    9.27 sec. (5940.23 ticks)
Parallel b&c, 16 threads:
  Real time             =   16.53 sec. (5580.58 ticks)
  Sync time (average)   =    0.21 sec.
  Wait time (average)   =    0.00 sec.
                          ------------
Total (root+branch&cut) =   25.80 sec. (11520.81 ticks)

Solution pool: 3 solutions saved.

MIP - Integer optimal solution:  Objective =  7.3715216139e+04
Solution time =   25.80 sec.  Iterations = 23812  Nodes = 5802
Deterministic time = 11520.97 ticks  (446.60 ticks/sec)

CPLEX> Incumbent solution written to file 'C:\Users\wenmi\Desktop\competitiveMPEC\logs\tmp29fmhl4g.cplex.sol'.
CPLEX> Exporting results... 
